c nombre: 29
c densidad: 0.5
p edges 70 1193
e 1 3
e 1 5
e 1 6
e 1 7
e 1 8
e 1 14
e 1 15
e 1 20
e 1 22
e 1 23
e 1 26
e 1 27
e 1 28
e 1 29
e 1 31
e 1 33
e 1 36
e 1 38
e 1 40
e 1 41
e 1 50
e 1 54
e 1 55
e 1 56
e 1 57
e 1 61
e 1 62
e 1 64
e 1 66
e 1 68
e 1 69
e 1 70
e 2 5
e 2 6
e 2 7
e 2 8
e 2 9
e 2 13
e 2 15
e 2 19
e 2 20
e 2 21
e 2 22
e 2 23
e 2 24
e 2 25
e 2 28
e 2 30
e 2 32
e 2 34
e 2 37
e 2 38
e 2 41
e 2 44
e 2 45
e 2 46
e 2 47
e 2 48
e 2 52
e 2 55
e 2 56
e 2 57
e 2 59
e 2 60
e 2 61
e 2 64
e 2 68
e 3 4
e 3 5
e 3 6
e 3 8
e 3 11
e 3 12
e 3 14
e 3 19
e 3 23
e 3 24
e 3 25
e 3 28
e 3 31
e 3 32
e 3 33
e 3 34
e 3 35
e 3 36
e 3 38
e 3 42
e 3 45
e 3 49
e 3 52
e 3 55
e 3 57
e 3 58
e 3 59
e 3 60
e 3 62
e 3 63
e 3 64
e 3 68
e 4 8
e 4 9
e 4 10
e 4 11
e 4 13
e 4 14
e 4 15
e 4 20
e 4 22
e 4 23
e 4 24
e 4 25
e 4 26
e 4 30
e 4 31
e 4 33
e 4 35
e 4 37
e 4 38
e 4 39
e 4 40
e 4 41
e 4 42
e 4 43
e 4 47
e 4 48
e 4 52
e 4 53
e 4 54
e 4 56
e 4 57
e 4 58
e 4 60
e 4 61
e 4 64
e 4 66
e 4 67
e 4 69
e 4 70
e 5 6
e 5 8
e 5 9
e 5 10
e 5 11
e 5 12
e 5 17
e 5 20
e 5 21
e 5 22
e 5 25
e 5 28
e 5 30
e 5 33
e 5 35
e 5 36
e 5 38
e 5 40
e 5 42
e 5 43
e 5 50
e 5 51
e 5 52
e 5 65
e 5 67
e 5 69
e 6 7
e 6 11
e 6 16
e 6 17
e 6 25
e 6 26
e 6 27
e 6 32
e 6 35
e 6 38
e 6 39
e 6 43
e 6 45
e 6 48
e 6 49
e 6 51
e 6 52
e 6 53
e 6 56
e 6 57
e 6 59
e 6 60
e 6 63
e 6 64
e 6 65
e 6 66
e 6 67
e 6 69
e 6 70
e 7 8
e 7 9
e 7 10
e 7 13
e 7 14
e 7 18
e 7 21
e 7 23
e 7 26
e 7 30
e 7 32
e 7 35
e 7 36
e 7 37
e 7 42
e 7 46
e 7 48
e 7 50
e 7 51
e 7 52
e 7 54
e 7 56
e 7 57
e 7 59
e 7 63
e 7 64
e 7 66
e 7 68
e 8 11
e 8 12
e 8 16
e 8 17
e 8 18
e 8 19
e 8 20
e 8 22
e 8 27
e 8 30
e 8 33
e 8 35
e 8 36
e 8 38
e 8 39
e 8 40
e 8 42
e 8 44
e 8 45
e 8 47
e 8 51
e 8 55
e 8 58
e 8 59
e 8 61
e 8 62
e 8 63
e 8 67
e 8 68
e 8 70
e 9 11
e 9 14
e 9 16
e 9 18
e 9 19
e 9 20
e 9 21
e 9 23
e 9 24
e 9 28
e 9 29
e 9 30
e 9 32
e 9 36
e 9 38
e 9 40
e 9 41
e 9 42
e 9 44
e 9 45
e 9 46
e 9 47
e 9 48
e 9 50
e 9 51
e 9 52
e 9 53
e 9 55
e 9 56
e 9 57
e 9 60
e 9 61
e 9 62
e 9 63
e 9 66
e 9 67
e 10 12
e 10 14
e 10 15
e 10 16
e 10 18
e 10 20
e 10 22
e 10 27
e 10 31
e 10 33
e 10 35
e 10 37
e 10 38
e 10 41
e 10 44
e 10 49
e 10 50
e 10 51
e 10 52
e 10 53
e 10 56
e 10 57
e 10 58
e 10 59
e 10 62
e 10 63
e 10 64
e 10 65
e 10 67
e 10 68
e 10 69
e 11 12
e 11 14
e 11 15
e 11 16
e 11 17
e 11 18
e 11 21
e 11 22
e 11 24
e 11 26
e 11 27
e 11 30
e 11 32
e 11 33
e 11 34
e 11 36
e 11 37
e 11 40
e 11 41
e 11 42
e 11 54
e 11 55
e 11 56
e 11 58
e 11 59
e 11 60
e 11 64
e 11 69
e 11 70
e 12 13
e 12 17
e 12 18
e 12 19
e 12 20
e 12 23
e 12 24
e 12 26
e 12 29
e 12 31
e 12 33
e 12 34
e 12 35
e 12 37
e 12 38
e 12 40
e 12 44
e 12 45
e 12 46
e 12 47
e 12 49
e 12 50
e 12 51
e 12 52
e 12 53
e 12 54
e 12 56
e 12 57
e 12 59
e 12 61
e 12 62
e 12 63
e 12 64
e 12 65
e 12 67
e 13 14
e 13 16
e 13 21
e 13 23
e 13 25
e 13 28
e 13 29
e 13 30
e 13 33
e 13 34
e 13 35
e 13 36
e 13 38
e 13 40
e 13 41
e 13 43
e 13 47
e 13 48
e 13 50
e 13 51
e 13 53
e 13 54
e 13 55
e 13 56
e 13 58
e 13 60
e 13 61
e 13 62
e 13 63
e 13 66
e 13 69
e 14 15
e 14 17
e 14 18
e 14 21
e 14 23
e 14 25
e 14 28
e 14 29
e 14 30
e 14 32
e 14 34
e 14 35
e 14 36
e 14 38
e 14 40
e 14 44
e 14 45
e 14 49
e 14 50
e 14 52
e 14 53
e 14 55
e 14 59
e 14 61
e 14 66
e 14 67
e 14 68
e 14 69
e 14 70
e 15 17
e 15 20
e 15 21
e 15 26
e 15 27
e 15 28
e 15 29
e 15 30
e 15 31
e 15 32
e 15 34
e 15 35
e 15 36
e 15 37
e 15 40
e 15 42
e 15 44
e 15 45
e 15 49
e 15 50
e 15 52
e 15 53
e 15 54
e 15 58
e 15 60
e 15 61
e 15 62
e 15 63
e 15 65
e 15 66
e 15 67
e 15 70
e 16 17
e 16 18
e 16 19
e 16 21
e 16 23
e 16 24
e 16 25
e 16 26
e 16 31
e 16 34
e 16 35
e 16 36
e 16 37
e 16 38
e 16 40
e 16 41
e 16 43
e 16 45
e 16 46
e 16 48
e 16 50
e 16 51
e 16 52
e 16 54
e 16 55
e 16 56
e 16 58
e 16 59
e 16 62
e 16 63
e 16 64
e 16 66
e 16 70
e 17 19
e 17 20
e 17 21
e 17 23
e 17 27
e 17 32
e 17 38
e 17 40
e 17 42
e 17 44
e 17 47
e 17 48
e 17 50
e 17 51
e 17 53
e 17 60
e 17 61
e 17 64
e 17 65
e 17 66
e 17 67
e 17 68
e 17 70
e 18 20
e 18 21
e 18 25
e 18 29
e 18 30
e 18 32
e 18 34
e 18 35
e 18 36
e 18 37
e 18 38
e 18 42
e 18 44
e 18 46
e 18 48
e 18 49
e 18 50
e 18 54
e 18 55
e 18 57
e 18 58
e 18 60
e 18 61
e 18 62
e 18 63
e 18 64
e 18 65
e 18 67
e 19 20
e 19 22
e 19 23
e 19 27
e 19 30
e 19 31
e 19 32
e 19 33
e 19 36
e 19 38
e 19 40
e 19 42
e 19 45
e 19 46
e 19 48
e 19 49
e 19 51
e 19 54
e 19 55
e 19 56
e 19 59
e 19 61
e 19 63
e 19 64
e 19 65
e 19 66
e 19 67
e 19 68
e 19 69
e 19 70
e 20 21
e 20 22
e 20 23
e 20 27
e 20 30
e 20 31
e 20 34
e 20 35
e 20 36
e 20 38
e 20 41
e 20 43
e 20 45
e 20 50
e 20 52
e 20 53
e 20 55
e 20 56
e 20 58
e 20 60
e 20 63
e 20 64
e 20 66
e 20 68
e 21 22
e 21 25
e 21 26
e 21 29
e 21 30
e 21 33
e 21 34
e 21 35
e 21 36
e 21 37
e 21 38
e 21 43
e 21 44
e 21 45
e 21 47
e 21 48
e 21 49
e 21 51
e 21 56
e 21 57
e 21 58
e 21 59
e 21 63
e 21 64
e 21 65
e 21 66
e 21 67
e 21 68
e 21 69
e 22 23
e 22 26
e 22 27
e 22 30
e 22 31
e 22 32
e 22 34
e 22 35
e 22 37
e 22 40
e 22 41
e 22 46
e 22 49
e 22 50
e 22 51
e 22 54
e 22 55
e 22 57
e 22 60
e 22 63
e 22 65
e 22 66
e 22 68
e 22 69
e 22 70
e 23 25
e 23 26
e 23 27
e 23 38
e 23 43
e 23 45
e 23 47
e 23 48
e 23 49
e 23 52
e 23 54
e 23 57
e 23 58
e 23 60
e 23 62
e 23 65
e 23 67
e 23 70
e 24 25
e 24 26
e 24 29
e 24 30
e 24 32
e 24 36
e 24 38
e 24 41
e 24 43
e 24 47
e 24 48
e 24 50
e 24 52
e 24 53
e 24 56
e 24 59
e 24 60
e 24 61
e 24 63
e 24 65
e 24 66
e 24 67
e 24 68
e 25 28
e 25 30
e 25 31
e 25 33
e 25 34
e 25 37
e 25 42
e 25 44
e 25 45
e 25 49
e 25 50
e 25 52
e 25 53
e 25 59
e 25 61
e 25 62
e 25 66
e 25 67
e 25 68
e 25 69
e 26 27
e 26 29
e 26 31
e 26 32
e 26 37
e 26 39
e 26 40
e 26 42
e 26 43
e 26 47
e 26 53
e 26 56
e 26 59
e 26 62
e 26 63
e 26 66
e 26 69
e 27 28
e 27 30
e 27 34
e 27 37
e 27 39
e 27 41
e 27 42
e 27 44
e 27 45
e 27 47
e 27 48
e 27 50
e 27 51
e 27 52
e 27 53
e 27 54
e 27 55
e 27 56
e 27 60
e 27 61
e 27 62
e 27 63
e 27 66
e 27 70
e 28 31
e 28 32
e 28 33
e 28 34
e 28 35
e 28 36
e 28 37
e 28 41
e 28 42
e 28 44
e 28 46
e 28 47
e 28 50
e 28 51
e 28 53
e 28 60
e 28 62
e 28 64
e 28 65
e 28 67
e 28 70
e 29 30
e 29 31
e 29 33
e 29 38
e 29 40
e 29 41
e 29 44
e 29 48
e 29 49
e 29 51
e 29 54
e 29 55
e 29 60
e 29 61
e 29 64
e 29 65
e 29 66
e 29 67
e 29 68
e 30 33
e 30 34
e 30 39
e 30 40
e 30 44
e 30 52
e 30 53
e 30 54
e 30 60
e 30 62
e 30 63
e 30 64
e 30 66
e 30 67
e 30 68
e 31 33
e 31 34
e 31 36
e 31 38
e 31 39
e 31 40
e 31 41
e 31 43
e 31 44
e 31 45
e 31 46
e 31 49
e 31 53
e 31 54
e 31 60
e 31 62
e 31 65
e 31 67
e 31 68
e 32 34
e 32 39
e 32 41
e 32 43
e 32 45
e 32 47
e 32 49
e 32 53
e 32 55
e 32 56
e 32 57
e 32 61
e 32 63
e 32 66
e 32 68
e 33 35
e 33 36
e 33 37
e 33 38
e 33 39
e 33 41
e 33 42
e 33 43
e 33 45
e 33 46
e 33 47
e 33 49
e 33 50
e 33 51
e 33 52
e 33 55
e 33 56
e 33 57
e 33 59
e 33 60
e 33 61
e 33 63
e 33 64
e 33 66
e 33 69
e 33 70
e 34 37
e 34 52
e 34 54
e 34 55
e 34 56
e 34 59
e 34 60
e 34 63
e 34 64
e 34 68
e 34 69
e 34 70
e 35 40
e 35 42
e 35 43
e 35 44
e 35 45
e 35 46
e 35 47
e 35 48
e 35 53
e 35 54
e 35 55
e 35 60
e 35 62
e 35 65
e 35 66
e 35 70
e 36 37
e 36 41
e 36 44
e 36 47
e 36 49
e 36 50
e 36 52
e 36 55
e 36 60
e 36 62
e 36 63
e 36 64
e 36 65
e 36 66
e 36 68
e 36 69
e 36 70
e 37 38
e 37 39
e 37 40
e 37 43
e 37 44
e 37 48
e 37 49
e 37 50
e 37 53
e 37 57
e 37 61
e 37 62
e 37 68
e 37 69
e 38 39
e 38 43
e 38 44
e 38 45
e 38 47
e 38 50
e 38 52
e 38 53
e 38 54
e 38 56
e 38 57
e 38 60
e 38 63
e 38 64
e 38 70
e 39 40
e 39 41
e 39 43
e 39 45
e 39 46
e 39 47
e 39 49
e 39 52
e 39 55
e 39 56
e 39 57
e 39 59
e 39 61
e 39 65
e 39 66
e 39 67
e 39 69
e 40 41
e 40 42
e 40 43
e 40 45
e 40 51
e 40 52
e 40 54
e 40 55
e 40 57
e 40 60
e 40 61
e 40 66
e 40 67
e 40 68
e 40 70
e 41 45
e 41 46
e 41 49
e 41 50
e 41 52
e 41 57
e 41 62
e 41 64
e 41 65
e 41 67
e 41 68
e 41 70
e 42 43
e 42 45
e 42 47
e 42 48
e 42 49
e 42 50
e 42 51
e 42 53
e 42 56
e 42 58
e 42 61
e 42 65
e 42 66
e 42 67
e 42 68
e 43 45
e 43 48
e 43 51
e 43 52
e 43 54
e 43 55
e 43 59
e 43 61
e 43 64
e 43 70
e 44 45
e 44 46
e 44 50
e 44 52
e 44 53
e 44 54
e 44 57
e 44 59
e 44 61
e 44 63
e 44 64
e 44 67
e 45 46
e 45 49
e 45 51
e 45 52
e 45 57
e 45 58
e 45 59
e 45 62
e 45 63
e 45 65
e 45 69
e 45 70
e 46 48
e 46 49
e 46 50
e 46 52
e 46 55
e 46 57
e 46 58
e 46 61
e 46 64
e 46 66
e 46 69
e 46 70
e 47 48
e 47 49
e 47 51
e 47 52
e 47 53
e 47 56
e 47 57
e 47 58
e 47 59
e 47 66
e 47 69
e 47 70
e 48 49
e 48 50
e 48 51
e 48 53
e 48 56
e 48 58
e 48 59
e 48 62
e 48 63
e 48 65
e 48 66
e 49 50
e 49 52
e 49 53
e 49 57
e 49 58
e 49 59
e 49 60
e 49 61
e 49 66
e 49 67
e 49 68
e 49 69
e 49 70
e 50 52
e 50 56
e 50 57
e 50 58
e 50 59
e 50 60
e 50 62
e 50 66
e 50 69
e 51 52
e 51 53
e 51 55
e 51 56
e 51 57
e 51 58
e 51 60
e 51 63
e 51 64
e 51 69
e 51 70
e 52 53
e 52 56
e 52 57
e 52 59
e 52 60
e 52 61
e 52 62
e 52 65
e 52 66
e 52 69
e 53 54
e 53 56
e 53 68
e 54 56
e 54 60
e 54 65
e 54 66
e 54 67
e 54 68
e 54 69
e 54 70
e 55 58
e 55 59
e 55 63
e 55 64
e 55 66
e 55 67
e 55 68
e 55 70
e 56 58
e 56 59
e 56 62
e 56 63
e 56 66
e 57 58
e 57 59
e 57 61
e 57 62
e 57 65
e 57 70
e 58 64
e 58 67
e 59 60
e 59 61
e 59 63
e 59 64
e 59 67
e 59 68
e 60 61
e 60 62
e 60 65
e 60 66
e 60 67
e 60 68
e 60 70
e 61 62
e 61 66
e 61 67
e 61 68
e 61 69
e 61 70
e 62 68
e 62 69
e 63 64
e 63 65
e 63 66
e 63 68
e 64 65
e 64 66
e 65 67
e 65 68
e 66 68
e 67 70
e 68 70
e 69 70
